DIMENSION: 20
EDGE_WEIGHT_TYPE: EXPLICIT
EDGE_WEIGHT_FORMAT: FULL_MATRIX
EDGE_WEIGHT_SECTION:
32767 32767 32767 53 32767 73 32767 32767 44 32767 32767 32767 32767 32767 63 32767 32767 32767 32767 32767 
32767 32767 32767 32767 54 91 75 32767 32 32767 32767 32767 32767 32767 32767 32767 32767 78 32767 32767 
32767 32767 32767 93 58 32767 32767 32767 32767 41 32767 30 32767 32767 66 32767 32767 32767 72 93 
53 32767 93 32767 32767 32767 18 32767 46 32767 32767 32767 32767 57 32767 32767 97 96 32767 25 
32767 54 58 32767 32767 32767 32767 74 32767 32767 32767 32767 75 32767 32767 32767 69 96 25 12 
73 91 32767 32767 32767 32767 32767 32767 33 32767 81 32767 32767 81 32767 54 32767 32767 32767 32767 
32767 75 32767 18 32767 32767 32767 32767 32767 32767 32767 32767 32767 56 14 32767 25 32767 32767 32767 
32767 32767 32767 32767 74 32767 32767 32767 32767 32767 32767 32767 32767 87 32767 32767 72 3 79 32767 
44 32 32767 46 32767 33 32767 32767 32767 32767 52 32767 32767 32767 71 54 32767 32767 32767 32767 
32767 32767 41 32767 32767 32767 32767 32767 32767 32767 72 8 78 32767 96 32767 19 32767 32767 11 
32767 32767 32767 32767 32767 81 32767 32767 52 72 32767 32767 32767 32767 51 67 32767 40 24 32767 
32767 32767 30 32767 32767 32767 32767 32767 32767 8 32767 32767 32767 32767 32767 32767 39 95 32767 42 
32767 32767 32767 32767 75 32767 32767 32767 32767 78 32767 32767 32767 48 32767 32767 50 38 32767 32767 
32767 32767 32767 57 32767 81 56 87 32767 32767 32767 32767 48 32767 32767 32767 32767 61 32767 38 
63 32767 66 32767 32767 32767 14 32767 71 96 51 32767 32767 32767 32767 32767 36 32767 54 32767 
32767 32767 32767 32767 32767 54 32767 32767 54 32767 67 32767 32767 32767 32767 32767 32767 32767 32767 32767 
32767 32767 32767 97 69 32767 25 72 32767 19 32767 39 50 32767 36 32767 32767 47 32767 7 
32767 78 32767 96 96 32767 32767 3 32767 32767 40 95 38 61 32767 32767 47 32767 32767 32767 
32767 32767 72 32767 25 32767 32767 79 32767 32767 24 32767 32767 32767 54 32767 32767 32767 32767 41 
32767 32767 93 25 12 32767 32767 32767 32767 11 32767 42 32767 38 32767 32767 7 32767 41 32767 
EOF